dualModel.mps
NAME 
ROWS
 N  OBJ
 E  R0      
 E  R1      
 E  R2      
COLUMNS
    Dualc1    OBJ       -90
    Dualc1    R0        -42.4
    Dualc1    R1        -3
    Dualc2    OBJ       -80
    Dualc2    R0        -2.3
    Dualc2    R1        -1
    DualGreatc3  OBJ       80
    DualGreatc3  R1        33
    DualGreatc3  R2        2.2
    DualLessc3  OBJ       -80
    DualLessc3  R1        -33
    DualLessc3  R2        -2.2
    Dualc4    OBJ       -25
    Dualc4    R0        -1
    Dualc4    R1        -4
    Dualc5    R0        1
    Dualc6    R1        1
    Dualc7    R2        1
RHS
    RHS1      R0        3.5
    RHS1      R1        4
BOUNDS
 MI BND1      Dualc1  
 UP BND1      Dualc1    0
 MI BND1      Dualc2  
 UP BND1      Dualc2    0
 MI BND1      DualGreatc3
 UP BND1      DualGreatc3  0
 MI BND1      DualLessc3
 UP BND1      DualLessc3  0
 MI BND1      Dualc4  
 UP BND1      Dualc4    0
 MI BND1      Dualc5  
 UP BND1      Dualc5    0
 MI BND1      Dualc6  
 UP BND1      Dualc6    0
 MI BND1      Dualc7  
 UP BND1      Dualc7    0
ENDATA
